src/smtinterpol/proofs/cong_intern.smt2
(set-option :produce-proofs true)
(set-option :print-terms-cse false)
(set-logic QF_UF)
(declare-fun x () Bool)
(declare-fun f (Bool) Bool)
(assert (f x))
(assert (not (f x)))
(check-sat)
(get-proof)
